
Gurobi 7.0.2 (linux64, Matlab) logging started Sun Sep  2 08:55:02 2018


Gurobi 7.0.2 (linux64) logging started Sun Sep  2 08:55:02 2018

Optimize a model with 19835 rows, 17484 columns and 182879 nonzeros
Coefficient statistics:
  Matrix range     [3e-02, 3e+01]
  Objective range  [9e-08, 9e+00]
  Bounds range     [7e-01, 1e+05]
  RHS range        [1e-16, 1e+05]
Iteration    Objective       Primal Inf.    Dual Inf.      Time
       0    8.1241308e+01   0.000000e+00   0.000000e+00      0s

Solved in 0 iterations and 0.02 seconds
Optimal objective  8.124130799e+01
